proyfinal/src/viki/013/experimentInOfficeAgust.take6.output/0b915fd7-e6ed-4cf7-adf8-77fc8ce9a71f.als.out
Reading from standard input... Use '--help' for help.
============================[ Problem Statistics ]=============================
|                                                                             |
|  Number of variables:         87638                                         |
|  Number of clauses:          161767                                         |
|  Parse time:                   0.03 s                                       |
|                                                                             |
============================[ Search Statistics ]==============================
| Conflicts |          ORIGINAL         |          LEARNT          | Progress |
|           |    Vars  Clauses Literals |    Limit  Clauses Lit/Cl |          |
===============================================================================
|       100 |   64021   111017   277390 |    40706      100     23 | 26.948 % |
|       250 |   64021   111017   277390 |    44776      250     41 | 26.948 % |
|       475 |   64020   110973   277300 |    49254      474     54 | 26.949 % |
|       812 |   64020   110973   277300 |    54179      811     88 | 26.949 % |
|      1318 |   64020   110973   277300 |    59597     1317     79 | 26.949 % |
|      2077 |   64020   110973   277300 |    65557     2076     72 | 26.949 % |
|      3216 |   64020   110973   277300 |    72113     3215     85 | 26.950 % |
|      4924 |   64020   110973   277300 |    79324     4923     82 | 26.949 % |
|      7486 |   64020   110973   277300 |    87257     7485     76 | 26.950 % |
|     11330 |   52796    76031   190657 |    95983     9288     68 | 39.757 % |
|     17096 |   52697    75821   190180 |   105581    14231     63 | 39.870 % |
===============================================================================
restarts              : 63
conflicts             : 17846          (8401 /sec)
decisions             : 60448          (0.00 % random) (28457 /sec)
propagations          : 21844679       (10283687 /sec)
conflict literals     : 1134244        (50.04 % deleted)
Memory used           : 38.90 MB
CPU time              : 2.12421 s

UNSATISFIABLE
